500
    1    55    55
    2    56    56
    3    96    96
    4    92    92
    5    46    46
    6    86    86
    7    27    27
    8    82    82
    9     8     8
   10    67    67
   11    65    65
   12    91    91
   13    81    81
   14    19    19
   15    95    95
   16    65    65
   17    93    93
   18    12    12
   19    22    22
   20    92    92
   21    95    95
   22    41    41
   23    79    79
   24     9     9
   25    96    96
   26    41    41
   27    56    56
   28   100   100
   29    28    28
   30    41    41
   31    28    28
   32    94    94
   33    45    45
   34    24    24
   35    88    88
   36    84    84
   37    61    61
   38    32    32
   39    90    90
   40    39    39
   41    77    77
   42    39    39
   43    11    11
   44    85    85
   45    56    56
   46    42    42
   47    14    14
   48    58    58
   49    56    56
   50    35    35
   51    36    36
   52    52    52
   53    78    78
   54    90    90
   55    95    95
   56     5     5
   57     5     5
   58    36    36
   59    87    87
   60    70    70
   61    33    33
   62    35    35
   63     7     7
   64    78    78
   65     7     7
   66    54    54
   67    89    89
   68    45    45
   69   100   100
   70    57    57
   71    37    37
   72    11    11
   73    12    12
   74    15    15
   75    80    80
   76     1     1
   77    56    56
   78    60    60
   79     6     6
   80     5     5
   81    51    51
   82    78    78
   83    77    77
   84    79    79
   85    90    90
   86    71    71
   87    73    73
   88    89    89
   89    39    39
   90    20    20
   91    58    58
   92    61    61
   93     9     9
   94    66    66
   95    29    29
   96     6     6
   97    19    19
   98    78    78
   99    52    52
  100    51    51
  101     6     6
  102    73    73
  103    12    12
  104    84    84
  105    93    93
  106    41    41
  107    24    24
  108    43    43
  109    20    20
  110     6     6
  111    75    75
  112    80    80
  113    89    89
  114    68    68
  115    42    42
  116    46    46
  117    44    44
  118    94    94
  119    58    58
  120    57    57
  121    92    92
  122    74    74
  123    78    78
  124    20    20
  125    99    99
  126    23    23
  127    86    86
  128    87    87
  129    51    51
  130    72    72
  131    72    72
  132    55    55
  133    64    64
  134    67    67
  135    50    50
  136    23    23
  137    60    60
  138    14    14
  139    33    33
  140    51    51
  141    45    45
  142    39    39
  143     9     9
  144    13    13
  145    98    98
  146    15    15
  147    11    11
  148    63    63
  149     3     3
  150    12    12
  151    12    12
  152    88    88
  153    26    26
  154    28    28
  155    91    91
  156    59    59
  157    32    32
  158    54    54
  159    82    82
  160    37    37
  161    53    53
  162    29    29
  163    45    45
  164    60    60
  165    30    30
  166    19    19
  167    41    41
  168    92    92
  169    33    33
  170    35    35
  171    85    85
  172    18    18
  173    19    19
  174    40    40
  175    16    16
  176     9     9
  177    30    30
  178    22    22
  179    11    11
  180    36    36
  181    32    32
  182   100   100
  183    48    48
  184    55    55
  185    48    48
  186    67    67
  187    71    71
  188    82    82
  189    20    20
  190    66    66
  191    33    33
  192    60    60
  193     5     5
  194    59    59
  195    52    52
  196    34    34
  197    44    44
  198    90    90
  199    44    44
  200     6     6
  201    97    97
  202    90    90
  203    36    36
  204    91    91
  205    38    38
  206    40    40
  207    16    16
  208    43    43
  209    49    49
  210    13    13
  211     2     2
  212    57    57
  213    87    87
  214    24    24
  215    54    54
  216    46    46
  217    50    50
  218   100   100
  219     1     1
  220    62    62
  221    74    74
  222    47    47
  223    59    59
  224    48    48
  225    45    45
  226    31    31
  227    37    37
  228    65    65
  229    89    89
  230    16    16
  231    62    62
  232    79    79
  233    71    71
  234    17    17
  235    29    29
  236    39    39
  237     9     9
  238    12    12
  239    52    52
  240     9     9
  241    99    99
  242    95    95
  243    56    56
  244     4     4
  245    95    95
  246    48    48
  247     6     6
  248     1     1
  249    73    73
  250    77    77
  251    14    14
  252    66    66
  253    23    23
  254    22    22
  255    43    43
  256    76    76
  257     6     6
  258    85    85
  259    35    35
  260    86    86
  261    45    45
  262   100   100
  263    81    81
  264     1     1
  265    58    58
  266    98    98
  267    68    68
  268    60    60
  269    36    36
  270    91    91
  271    18    18
  272    29    29
  273    49    49
  274     2     2
  275    14    14
  276     3     3
  277    17    17
  278    53    53
  279     4     4
  280    11    11
  281    51    51
  282    84    84
  283    24    24
  284    94    94
  285    87    87
  286     7     7
  287    27    27
  288    41    41
  289     1     1
  290    74    74
  291    46    46
  292    40    40
  293    10    10
  294    31    31
  295    83    83
  296    29    29
  297    96    96
  298    34    34
  299    98    98
  300    60    60
  301    73    73
  302    94    94
  303    64    64
  304    92    92
  305    81    81
  306     1     1
  307    72    72
  308    41    41
  309    81    81
  310    58    58
  311    48    48
  312    82    82
  313    50    50
  314    47    47
  315    47    47
  316    43    43
  317    45    45
  318    73    73
  319    41    41
  320    39    39
  321     9     9
  322    20    20
  323    66    66
  324     3     3
  325    90    90
  326    84    84
  327    85    85
  328    55    55
  329    73    73
  330    50    50
  331    86    86
  332    99    99
  333    70    70
  334    65    65
  335    87    87
  336    38    38
  337    97    97
  338    72    72
  339    93    93
  340    99    99
  341    94    94
  342    24    24
  343    25    25
  344    52    52
  345    24    24
  346    36    36
  347    33    33
  348    64    64
  349    54    54
  350     1     1
  351    94    94
  352    94    94
  353    74    74
  354     5     5
  355     1     1
  356    20    20
  357    54    54
  358    76    76
  359    91    91
  360    58    58
  361    99    99
  362    69    69
  363    48    48
  364    59    59
  365    96    96
  366    31    31
  367    80    80
  368    19    19
  369    44    44
  370    63    63
  371    17    17
  372    75    75
  373    58    58
  374    31    31
  375    85    85
  376    46    46
  377    75    75
  378    97    97
  379    25    25
  380    21    21
  381    22    22
  382    74    74
  383    86    86
  384    77    77
  385    84    84
  386    71    71
  387    88    88
  388    34    34
  389    45    45
  390    58    58
  391    97    97
  392     3     3
  393    83    83
  394    82    82
  395    33    33
  396    66    66
  397    50    50
  398    28    28
  399    57    57
  400    26    26
  401    46    46
  402    42    42
  403    68    68
  404    87    87
  405    54    54
  406    90    90
  407    98    98
  408    96    96
  409    10    10
  410    16    16
  411    16    16
  412    46    46
  413    80    80
  414    89    89
  415     5     5
  416    57    57
  417    75    75
  418    68    68
  419    21    21
  420    21    21
  421    52    52
  422    79    79
  423    87    87
  424    75    75
  425    78    78
  426    27    27
  427     4     4
  428    87    87
  429    85    85
  430    85    85
  431    67    67
  432    96    96
  433    64    64
  434    77    77
  435    67    67
  436    67    67
  437    29    29
  438    85    85
  439    98    98
  440    21    21
  441    33    33
  442    95    95
  443   100   100
  444    36    36
  445    57    57
  446    77    77
  447    31    31
  448    66    66
  449    67    67
  450    78    78
  451    67    67
  452    21    21
  453    51    51
  454    50    50
  455    17    17
  456    43    43
  457    71    71
  458    18    18
  459    74    74
  460    42    42
  461    85    85
  462    90    90
  463    38    38
  464     9     9
  465    40    40
  466    44    44
  467    46    46
  468    57    57
  469    41    41
  470    49    49
  471    11    11
  472    18    18
  473    69    69
  474    68    68
  475    41    41
  476    54    54
  477    52    52
  478    51    51
  479    72    72
  480   100   100
  481    53    53
  482    47    47
  483     7     7
  484    47    47
  485    53    53
  486    16    16
  487    19    19
  488    30    30
  489    62    62
  490    73    73
  491     6     6
  492    64    64
  493     5     5
  494    74    74
  495    77    77
  496     9     9
  497    68    68
  498    39    39
  499    20    20
  500    19    19
21655
